n_res = 4;
rc = [ 40, 25, 25, 19 ];
n_tasks = 30;
d = [ 4, 1, 5, 9, 10, 6, 1, 9, 2, 8, 8, 8, 2, 2, 10, 8, 10, 2, 10, 5, 3, 6, 5, 10, 10, 8, 10, 2, 10, 3 ];
rr = [| 4, 5, 4, 0, 0, 9, 0, 9, 0, 0, 0, 0, 4, 8, 3, 7, 10, 0, 0, 3, 2, 9, 2, 0, 5, 0, 0, 0, 0, 3
      | 8, 0, 0, 3, 4, 0, 4, 5, 10, 0, 5, 0, 10, 0, 2, 5, 3, 0, 0, 0, 2, 0, 5, 0, 6, 5, 5, 0, 8, 0
      | 0, 0, 0, 0, 3, 2, 0, 0, 7, 7, 10, 0, 0, 3, 4, 0, 0, 1, 2, 5, 0, 10, 0, 0, 0, 0, 0, 3, 0, 5
      | 0, 5, 3, 3, 0, 2, 0, 0, 0, 3, 0, 4, 7, 0, 5, 0, 0, 0, 7, 0, 9, 3, 4, 2, 10, 0, 0, 1, 0, 0 |];
suc = [ { 4, 6, 15 },
       { 5, 13 },
       { 7, 26 },
       { 14, 17, 29 },
       { 9, 10, 25 },
       { 20 },
       { 8, 10, 28 },
       { 18, 21 },
       { 16 },
       { 11, 12, 19 },
       { 18 },
       { 21 },
       { 21 },
       { 19, 24, 27 },
       { 27 },
       { 29 },
       { 22 },
       { 24 },
       { 30 },
       { 23 },
       { 24 },
       { 23 },
       { 25 },
       { 30 },
       { 30 },
       { 27 },
       { 28 },
       {  },
       {  },
       {  } ];
